WARNING: for repeatability, setting FPU to use double precision
============================[ Problem Statistics ]=============================
|                                                                             |
|  Number of variables:          2621                                         |
|  Number of clauses:           59568                                         |
|  Parse time:                   0.01 s                                       |
|                                                                             |
c ============================[ Search Statistics ]==============================
c | Conflicts |          ORIGINAL         |          LEARNT          | Progress |
c |           |    Vars  Clauses Literals |    Limit  Clauses Lit/Cl |          |
c ===============================================================================
c Switched to VSIDS.
c Switched to LRB.
c Switched to VSIDS.
c Switched to LRB.
c Switched to VSIDS.
c Switched to LRB.
c Switched to VSIDS.
c Switched to LRB.
c Switched to VSIDS.
c Switched to LRB.
c Switched to VSIDS.
c Switched to LRB.
c Switched to VSIDS.
c Switched to LRB.
c Switched to VSIDS.
c Switched to LRB.
c Switched to VSIDS.
c Switched to LRB.
c Switched to VSIDS.
c Switched to LRB.
c Switched to VSIDS.
c Switched to LRB.
c Switched to VSIDS.
c Switched to LRB.
c ===============================================================================
restarts                  : 73359
conflicts                 : 11643789       (3615 /sec)
decisions                 : 37009353       (0.00 % random) (11492 /sec)
propagations              : 2811996574     (873132 /sec)
conflict literals         : 1611419077     (26.14 % deleted)

conflicts w/ DIP found    : 3963311        (34.04 % of conflicts)
conflicts w/ dangerous DIP: 0              (0.00 % of conflicts)
conflicts w/ DIP-learning : 68657          (0.59 % of conflicts)
decisions on ext vars     : 2496244        (6.74 % of decisions)
total ext vars            : 2284        
tried delete ext vars     : 0           
deleted ext vars          : 0           
max ext vars              : 2284        

Memory used               : 453.00 MB
CPU time                  : 3220.58 s
DIP computation time      : 67.4757 s (2.10 % of total time)
ER_sel time               : 17.6444 s
ER_add time               : 0.012203 s
ER_delC time              : 0 s
ER_delV time              : 0 s
ER_sub time               : 21.1518 s
ER_stat time              : 0 s

UNSATISFIABLE
